<?xml version="1.0" encoding="UTF-8"?><osil xmlns="os.optimizationservices.org"   xmlns:xsi="http://www.w3.org/2001/XMLSchema-instance" xsi:schemaLocation="os.optimizationservices.org http://www.optimizationservices.org/schemas/2.0/OSiL.xsd" ><instanceHeader><name>q_20_0_100_3</name></instanceHeader><instanceData><variables numberOfVariables="20"><var name="x1" ub="1"/><var name="x2" ub="1"/><var name="x3" ub="1"/><var name="x4" ub="1"/><var name="x5" ub="1"/><var name="x6" ub="1"/><var name="x7" ub="1"/><var name="x8" ub="1"/><var name="x9" ub="1"/><var name="x10" ub="1"/><var name="x11" ub="1"/><var name="x12" ub="1"/><var name="x13" ub="1"/><var name="x14" ub="1"/><var name="x15" ub="1"/><var name="x16" ub="1"/><var name="x17" ub="1"/><var name="x18" ub="1"/><var name="x19" ub="1"/><var name="x20" ub="1"/></variables><objectives numberOfObjectives="1"><obj maxOrMin="min" name="defObj_x21" numberOfObjCoef="20"><coef idx="0">.5786</coef><coef idx="1">-.3041</coef><coef idx="2">.5286</coef><coef idx="3">-.6138</coef><coef idx="4">-.8712</coef><coef idx="5">-.9096</coef><coef idx="6">-.707</coef><coef idx="7">.6138</coef><coef idx="8">.312</coef><coef idx="9">-.5107</coef><coef idx="10">-.3513</coef><coef idx="11">.9673</coef><coef idx="12">.2275</coef><coef idx="13">-.415</coef><coef idx="14">-8.9e-3</coef><coef idx="15">.4723</coef><coef idx="16">-.9209</coef><coef idx="17">-.9687</coef><coef idx="18">-4.3e-2</coef><coef idx="19">.5532</coef></obj></objectives><quadraticCoefficients  numberOfQuadraticTerms="210" ><qTerm  idx="-1"  idxOne="0"  idxTwo="0"  coef="-.1342"/><qTerm  idx="-1"  idxOne="0"  idxTwo="1"  coef="-.904"/><qTerm  idx="-1"  idxOne="0"  idxTwo="2"  coef="-.1518"/><qTerm  idx="-1"  idxOne="0"  idxTwo="3"  coef=".4747"/><qTerm  idx="-1"  idxOne="0"  idxTwo="4"  coef=".7456"/><qTerm  idx="-1"  idxOne="0"  idxTwo="5"  coef="-.384"/><qTerm  idx="-1"  idxOne="0"  idxTwo="6"  coef=".6866"/><qTerm  idx="-1"  idxOne="0"  idxTwo="7"  coef=".6322"/><qTerm  idx="-1"  idxOne="0"  idxTwo="8"  coef="-.1864"/><qTerm  idx="-1"  idxOne="0"  idxTwo="9"  coef=".73"/><qTerm  idx="-1"  idxOne="0"  idxTwo="10"  coef=".7045"/><qTerm  idx="-1"  idxOne="0"  idxTwo="11"  coef="2.42e-2"/><qTerm  idx="-1"  idxOne="0"  idxTwo="12"  coef=".5528"/><qTerm  idx="-1"  idxOne="0"  idxTwo="13"  coef="-1.43e-2"/><qTerm  idx="-1"  idxOne="0"  idxTwo="14"  coef="-.5903"/><qTerm  idx="-1"  idxOne="0"  idxTwo="15"  coef="-.1097"/><qTerm  idx="-1"  idxOne="0"  idxTwo="16"  coef="-.1329"/><qTerm  idx="-1"  idxOne="0"  idxTwo="17"  coef="-.8906"/><qTerm  idx="-1"  idxOne="0"  idxTwo="18"  coef=".401"/><qTerm  idx="-1"  idxOne="0"  idxTwo="19"  coef=".8385"/><qTerm  idx="-1"  idxOne="1"  idxTwo="1"  coef="-.222"/><qTerm  idx="-1"  idxOne="1"  idxTwo="2"  coef="-.5022"/><qTerm  idx="-1"  idxOne="1"  idxTwo="3"  coef="-.2673"/><qTerm  idx="-1"  idxOne="1"  idxTwo="4"  coef=".9973"/><qTerm  idx="-1"  idxOne="1"  idxTwo="5"  coef=".3242"/><qTerm  idx="-1"  idxOne="1"  idxTwo="6"  coef="-.6405"/><qTerm  idx="-1"  idxOne="1"  idxTwo="7"  coef=".7448"/><qTerm  idx="-1"  idxOne="1"  idxTwo="8"  coef="-.5121"/><qTerm  idx="-1"  idxOne="1"  idxTwo="9"  coef="-.7672"/><qTerm  idx="-1"  idxOne="1"  idxTwo="10"  coef=".6364"/><qTerm  idx="-1"  idxOne="1"  idxTwo="11"  coef="7.13e-2"/><qTerm  idx="-1"  idxOne="1"  idxTwo="12"  coef=".9761"/><qTerm  idx="-1"  idxOne="1"  idxTwo="13"  coef="-.1674"/><qTerm  idx="-1"  idxOne="1"  idxTwo="14"  coef=".6164"/><qTerm  idx="-1"  idxOne="1"  idxTwo="15"  coef="-.5201"/><qTerm  idx="-1"  idxOne="1"  idxTwo="16"  coef=".9405"/><qTerm  idx="-1"  idxOne="1"  idxTwo="17"  coef="-.2474"/><qTerm  idx="-1"  idxOne="1"  idxTwo="18"  coef=".2668"/><qTerm  idx="-1"  idxOne="1"  idxTwo="19"  coef="-.7262"/><qTerm  idx="-1"  idxOne="2"  idxTwo="2"  coef=".5369"/><qTerm  idx="-1"  idxOne="2"  idxTwo="3"  coef="-.7976"/><qTerm  idx="-1"  idxOne="2"  idxTwo="4"  coef=".1039"/><qTerm  idx="-1"  idxOne="2"  idxTwo="5"  coef=".6633"/><qTerm  idx="-1"  idxOne="2"  idxTwo="6"  coef="-.2455"/><qTerm  idx="-1"  idxOne="2"  idxTwo="7"  coef=".7355"/><qTerm  idx="-1"  idxOne="2"  idxTwo="8"  coef=".2493"/><qTerm  idx="-1"  idxOne="2"  idxTwo="9"  coef=".1046"/><qTerm  idx="-1"  idxOne="2"  idxTwo="10"  coef="-.5768"/><qTerm  idx="-1"  idxOne="2"  idxTwo="11"  coef=".6454"/><qTerm  idx="-1"  idxOne="2"  idxTwo="12"  coef="-.2728"/><qTerm  idx="-1"  idxOne="2"  idxTwo="13"  coef="-.539"/><qTerm  idx="-1"  idxOne="2"  idxTwo="14"  coef="-.3418"/><qTerm  idx="-1"  idxOne="2"  idxTwo="15"  coef=".3602"/><qTerm  idx="-1"  idxOne="2"  idxTwo="16"  coef="-.1419"/><qTerm  idx="-1"  idxOne="2"  idxTwo="17"  coef="-9.54e-2"/><qTerm  idx="-1"  idxOne="2"  idxTwo="18"  coef=".8552"/><qTerm  idx="-1"  idxOne="2"  idxTwo="19"  coef="-.1075"/><qTerm  idx="-1"  idxOne="3"  idxTwo="3"  coef=".3345"/><qTerm  idx="-1"  idxOne="3"  idxTwo="4"  coef=".5617"/><qTerm  idx="-1"  idxOne="3"  idxTwo="5"  coef=".5817"/><qTerm  idx="-1"  idxOne="3"  idxTwo="6"  coef="-.6045"/><qTerm  idx="-1"  idxOne="3"  idxTwo="7"  coef="-.4872"/><qTerm  idx="-1"  idxOne="3"  idxTwo="8"  coef=".3536"/><qTerm  idx="-1"  idxOne="3"  idxTwo="9"  coef=".7971"/><qTerm  idx="-1"  idxOne="3"  idxTwo="10"  coef="-.25"/><qTerm  idx="-1"  idxOne="3"  idxTwo="11"  coef="-.9599"/><qTerm  idx="-1"  idxOne="3"  idxTwo="12"  coef="-.196"/><qTerm  idx="-1"  idxOne="3"  idxTwo="13"  coef=".9819"/><qTerm  idx="-1"  idxOne="3"  idxTwo="14"  coef=".9495"/><qTerm  idx="-1"  idxOne="3"  idxTwo="15"  coef=".9406"/><qTerm  idx="-1"  idxOne="3"  idxTwo="16"  coef=".9377"/><qTerm  idx="-1"  idxOne="3"  idxTwo="17"  coef="-.2505"/><qTerm  idx="-1"  idxOne="3"  idxTwo="18"  coef="-.8054"/><qTerm  idx="-1"  idxOne="3"  idxTwo="19"  coef=".5014"/><qTerm  idx="-1"  idxOne="4"  idxTwo="4"  coef=".649"/><qTerm  idx="-1"  idxOne="4"  idxTwo="5"  coef=".4489"/><qTerm  idx="-1"  idxOne="4"  idxTwo="6"  coef="-.2659"/><qTerm  idx="-1"  idxOne="4"  idxTwo="7"  coef=".2441"/><qTerm  idx="-1"  idxOne="4"  idxTwo="8"  coef="-.3874"/><qTerm  idx="-1"  idxOne="4"  idxTwo="9"  coef="-.3974"/><qTerm  idx="-1"  idxOne="4"  idxTwo="10"  coef=".3528"/><qTerm  idx="-1"  idxOne="4"  idxTwo="11"  coef=".6601"/><qTerm  idx="-1"  idxOne="4"  idxTwo="12"  coef=".1126"/><qTerm  idx="-1"  idxOne="4"  idxTwo="13"  coef=".1189"/><qTerm  idx="-1"  idxOne="4"  idxTwo="14"  coef="-.3444"/><qTerm  idx="-1"  idxOne="4"  idxTwo="15"  coef=".4614"/><qTerm  idx="-1"  idxOne="4"  idxTwo="16"  coef="-.6835"/><qTerm  idx="-1"  idxOne="4"  idxTwo="17"  coef="6.58e-2"/><qTerm  idx="-1"  idxOne="4"  idxTwo="18"  coef=".5684"/><qTerm  idx="-1"  idxOne="4"  idxTwo="19"  coef="-.5684"/><qTerm  idx="-1"  idxOne="5"  idxTwo="5"  coef="-.3494"/><qTerm  idx="-1"  idxOne="5"  idxTwo="6"  coef="2.9e-3"/><qTerm  idx="-1"  idxOne="5"  idxTwo="7"  coef="-.5542"/><qTerm  idx="-1"  idxOne="5"  idxTwo="8"  coef="-6.7e-2"/><qTerm  idx="-1"  idxOne="5"  idxTwo="9"  coef="-.6264"/><qTerm  idx="-1"  idxOne="5"  idxTwo="10"  coef="-.6098"/><qTerm  idx="-1"  idxOne="5"  idxTwo="11"  coef="-.5862"/><qTerm  idx="-1"  idxOne="5"  idxTwo="12"  coef=".8116"/><qTerm  idx="-1"  idxOne="5"  idxTwo="13"  coef=".5998"/><qTerm  idx="-1"  idxOne="5"  idxTwo="14"  coef=".4699"/><qTerm  idx="-1"  idxOne="5"  idxTwo="15"  coef="-.1693"/><qTerm  idx="-1"  idxOne="5"  idxTwo="16"  coef=".622"/><qTerm  idx="-1"  idxOne="5"  idxTwo="17"  coef=".9767"/><qTerm  idx="-1"  idxOne="5"  idxTwo="18"  coef="-1.78e-2"/><qTerm  idx="-1"  idxOne="5"  idxTwo="19"  coef="-.5614"/><qTerm  idx="-1"  idxOne="6"  idxTwo="6"  coef=".5238"/><qTerm  idx="-1"  idxOne="6"  idxTwo="7"  coef=".8146"/><qTerm  idx="-1"  idxOne="6"  idxTwo="8"  coef=".1793"/><qTerm  idx="-1"  idxOne="6"  idxTwo="9"  coef=".7412"/><qTerm  idx="-1"  idxOne="6"  idxTwo="10"  coef="-.9228"/><qTerm  idx="-1"  idxOne="6"  idxTwo="11"  coef=".8761"/><qTerm  idx="-1"  idxOne="6"  idxTwo="12"  coef="-.9062"/><qTerm  idx="-1"  idxOne="6"  idxTwo="13"  coef=".7942"/><qTerm  idx="-1"  idxOne="6"  idxTwo="14"  coef="-.9605"/><qTerm  idx="-1"  idxOne="6"  idxTwo="15"  coef=".9985"/><qTerm  idx="-1"  idxOne="6"  idxTwo="16"  coef=".9604"/><qTerm  idx="-1"  idxOne="6"  idxTwo="17"  coef=".2233"/><qTerm  idx="-1"  idxOne="6"  idxTwo="18"  coef=".1751"/><qTerm  idx="-1"  idxOne="6"  idxTwo="19"  coef=".9245"/><qTerm  idx="-1"  idxOne="7"  idxTwo="7"  coef=".7868"/><qTerm  idx="-1"  idxOne="7"  idxTwo="8"  coef="-.5956"/><qTerm  idx="-1"  idxOne="7"  idxTwo="9"  coef="-.9745"/><qTerm  idx="-1"  idxOne="7"  idxTwo="10"  coef="-.49"/><qTerm  idx="-1"  idxOne="7"  idxTwo="11"  coef=".7809"/><qTerm  idx="-1"  idxOne="7"  idxTwo="12"  coef="-.4609"/><qTerm  idx="-1"  idxOne="7"  idxTwo="13"  coef=".778"/><qTerm  idx="-1"  idxOne="7"  idxTwo="14"  coef="3.83e-2"/><qTerm  idx="-1"  idxOne="7"  idxTwo="15"  coef="-.2656"/><qTerm  idx="-1"  idxOne="7"  idxTwo="16"  coef=".9676"/><qTerm  idx="-1"  idxOne="7"  idxTwo="17"  coef=".7539"/><qTerm  idx="-1"  idxOne="7"  idxTwo="18"  coef=".3629"/><qTerm  idx="-1"  idxOne="7"  idxTwo="19"  coef="-.2751"/><qTerm  idx="-1"  idxOne="8"  idxTwo="8"  coef="-.6036"/><qTerm  idx="-1"  idxOne="8"  idxTwo="9"  coef="-.6255"/><qTerm  idx="-1"  idxOne="8"  idxTwo="10"  coef=".9753"/><qTerm  idx="-1"  idxOne="8"  idxTwo="11"  coef="-.6347"/><qTerm  idx="-1"  idxOne="8"  idxTwo="12"  coef="-.9763"/><qTerm  idx="-1"  idxOne="8"  idxTwo="13"  coef=".8874"/><qTerm  idx="-1"  idxOne="8"  idxTwo="14"  coef="-1.61e-2"/><qTerm  idx="-1"  idxOne="8"  idxTwo="15"  coef=".9611"/><qTerm  idx="-1"  idxOne="8"  idxTwo="16"  coef=".2266"/><qTerm  idx="-1"  idxOne="8"  idxTwo="17"  coef="-.2746"/><qTerm  idx="-1"  idxOne="8"  idxTwo="18"  coef="6.48e-2"/><qTerm  idx="-1"  idxOne="8"  idxTwo="19"  coef="-.7084"/><qTerm  idx="-1"  idxOne="9"  idxTwo="9"  coef="-.7343"/><qTerm  idx="-1"  idxOne="9"  idxTwo="10"  coef="-.2376"/><qTerm  idx="-1"  idxOne="9"  idxTwo="11"  coef=".4007"/><qTerm  idx="-1"  idxOne="9"  idxTwo="12"  coef="9.95e-2"/><qTerm  idx="-1"  idxOne="9"  idxTwo="13"  coef=".6511"/><qTerm  idx="-1"  idxOne="9"  idxTwo="14"  coef="7.47e-2"/><qTerm  idx="-1"  idxOne="9"  idxTwo="15"  coef=".3247"/><qTerm  idx="-1"  idxOne="9"  idxTwo="16"  coef="-.8937"/><qTerm  idx="-1"  idxOne="9"  idxTwo="17"  coef="-.6571"/><qTerm  idx="-1"  idxOne="9"  idxTwo="18"  coef=".2373"/><qTerm  idx="-1"  idxOne="9"  idxTwo="19"  coef=".5175"/><qTerm  idx="-1"  idxOne="10"  idxTwo="10"  coef=".8201"/><qTerm  idx="-1"  idxOne="10"  idxTwo="11"  coef=".428"/><qTerm  idx="-1"  idxOne="10"  idxTwo="12"  coef=".48"/><qTerm  idx="-1"  idxOne="10"  idxTwo="13"  coef="-.2866"/><qTerm  idx="-1"  idxOne="10"  idxTwo="14"  coef=".6437"/><qTerm  idx="-1"  idxOne="10"  idxTwo="15"  coef=".1041"/><qTerm  idx="-1"  idxOne="10"  idxTwo="16"  coef=".3016"/><qTerm  idx="-1"  idxOne="10"  idxTwo="17"  coef="-.6249"/><qTerm  idx="-1"  idxOne="10"  idxTwo="18"  coef=".6366"/><qTerm  idx="-1"  idxOne="10"  idxTwo="19"  coef="-.9552"/><qTerm  idx="-1"  idxOne="11"  idxTwo="11"  coef=".3144"/><qTerm  idx="-1"  idxOne="11"  idxTwo="12"  coef="-.7607"/><qTerm  idx="-1"  idxOne="11"  idxTwo="13"  coef="-.2293"/><qTerm  idx="-1"  idxOne="11"  idxTwo="14"  coef="-.5147"/><qTerm  idx="-1"  idxOne="11"  idxTwo="15"  coef=".9307"/><qTerm  idx="-1"  idxOne="11"  idxTwo="16"  coef="-2.94e-2"/><qTerm  idx="-1"  idxOne="11"  idxTwo="17"  coef=".9847"/><qTerm  idx="-1"  idxOne="11"  idxTwo="18"  coef="-.4374"/><qTerm  idx="-1"  idxOne="11"  idxTwo="19"  coef=".9569"/><qTerm  idx="-1"  idxOne="12"  idxTwo="12"  coef=".9057"/><qTerm  idx="-1"  idxOne="12"  idxTwo="13"  coef="-.5138"/><qTerm  idx="-1"  idxOne="12"  idxTwo="14"  coef="-.1668"/><qTerm  idx="-1"  idxOne="12"  idxTwo="15"  coef=".4716"/><qTerm  idx="-1"  idxOne="12"  idxTwo="16"  coef="-.6094"/><qTerm  idx="-1"  idxOne="12"  idxTwo="17"  coef=".2787"/><qTerm  idx="-1"  idxOne="12"  idxTwo="18"  coef=".2594"/><qTerm  idx="-1"  idxOne="12"  idxTwo="19"  coef="-.7943"/><qTerm  idx="-1"  idxOne="13"  idxTwo="13"  coef="-.7225"/><qTerm  idx="-1"  idxOne="13"  idxTwo="14"  coef="-9.02e-2"/><qTerm  idx="-1"  idxOne="13"  idxTwo="15"  coef=".9687"/><qTerm  idx="-1"  idxOne="13"  idxTwo="16"  coef="-.1502"/><qTerm  idx="-1"  idxOne="13"  idxTwo="17"  coef=".4096"/><qTerm  idx="-1"  idxOne="13"  idxTwo="18"  coef="-.2692"/><qTerm  idx="-1"  idxOne="13"  idxTwo="19"  coef="-.5992"/><qTerm  idx="-1"  idxOne="14"  idxTwo="14"  coef="-.1808"/><qTerm  idx="-1"  idxOne="14"  idxTwo="15"  coef="-.5216"/><qTerm  idx="-1"  idxOne="14"  idxTwo="16"  coef=".41"/><qTerm  idx="-1"  idxOne="14"  idxTwo="17"  coef="-.8418"/><qTerm  idx="-1"  idxOne="14"  idxTwo="18"  coef="-.5924"/><qTerm  idx="-1"  idxOne="14"  idxTwo="19"  coef="-.9653"/><qTerm  idx="-1"  idxOne="15"  idxTwo="15"  coef="-.3314"/><qTerm  idx="-1"  idxOne="15"  idxTwo="16"  coef="-.4303"/><qTerm  idx="-1"  idxOne="15"  idxTwo="17"  coef=".6908"/><qTerm  idx="-1"  idxOne="15"  idxTwo="18"  coef="-1.11e-2"/><qTerm  idx="-1"  idxOne="15"  idxTwo="19"  coef=".4202"/><qTerm  idx="-1"  idxOne="16"  idxTwo="16"  coef="-.4907"/><qTerm  idx="-1"  idxOne="16"  idxTwo="17"  coef=".6454"/><qTerm  idx="-1"  idxOne="16"  idxTwo="18"  coef="-.4368"/><qTerm  idx="-1"  idxOne="16"  idxTwo="19"  coef=".2496"/><qTerm  idx="-1"  idxOne="17"  idxTwo="17"  coef=".4916"/><qTerm  idx="-1"  idxOne="17"  idxTwo="18"  coef=".7479"/><qTerm  idx="-1"  idxOne="17"  idxTwo="19"  coef="-.7442"/><qTerm  idx="-1"  idxOne="18"  idxTwo="18"  coef="-.4416"/><qTerm  idx="-1"  idxOne="18"  idxTwo="19"  coef=".847"/><qTerm  idx="-1"  idxOne="19"  idxTwo="19"  coef=".9726"/></quadraticCoefficients></instanceData></osil>
